p cnf 1111 2621
a 1 2 3 4 5 6 7 8 9 10 11 12 13 15 17 18 19 21 22 23 24 25 26 27 28 29 30 31 32 33 34 35 36 37 38 39 40 41 42 43 44 45 46 47 48 49 50 51 52 53 54 55 56 57 58 59 60 61 62 63 64 65 66 67 68 69 70 71 72 73 74 75 81 82 83 84 85 86 92 98 99 100 101 102 103 104 105 112 113 114 0
e 14 16 20 76 77 78 79 80 87 88 89 90 91 93 94 95 96 97 106 107 108 109 110 111 115 116 117 118 119 120 121 122 123 124 125 126 127 128 129 130 131 132 133 134 135 136 137 138 139 140 141 142 143 144 145 146 147 148 149 150 151 152 153 154 155 156 157 158 159 160 161 162 163 164 165 166 167 168 169 170 171 172 173 174 175 176 177 178 179 180 181 182 183 184 185 186 187 188 189 190 191 192 193 194 195 196 197 198 199 200 201 202 203 204 205 206 207 208 209 210 211 212 213 214 215 216 217 218 219 220 221 222 223 224 225 226 227 228 229 230 231 232 233 234 235 236 237 238 239 240 241 242 243 244 245 246 247 248 249 250 251 252 253 254 255 256 257 258 259 260 261 262 263 264 265 266 267 268 269 270 271 272 273 274 275 276 277 278 279 280 281 282 283 284 285 286 287 288 289 290 291 292 293 294 295 296 297 298 299 300 301 302 303 304 305 306 307 308 309 310 311 312 313 314 315 316 317 318 319 320 321 322 323 324 325 326 327 328 329 330 331 332 333 334 335 336 337 338 339 340 341 342 343 344 345 346 347 348 349 350 351 352 353 354 355 356 357 358 359 360 361 362 363 364 365 366 367 368 369 370 371 372 373 374 375 376 377 378 379 380 381 382 383 384 385 386 387 388 389 390 391 392 393 394 395 396 397 398 399 400 401 402 403 404 405 406 407 408 409 410 411 412 413 414 415 416 417 418 419 420 421 422 423 424 425 426 427 428 429 430 431 432 433 434 435 436 437 438 439 440 441 442 443 444 445 446 447 448 449 450 451 452 453 454 455 456 457 458 459 460 461 462 463 464 465 466 467 468 469 470 471 472 473 474 475 476 477 478 479 480 481 482 483 484 485 486 487 488 489 490 491 492 493 494 495 496 497 498 499 500 501 502 503 504 505 506 507 508 509 510 511 512 513 514 515 516 517 518 519 520 521 522 523 524 525 526 527 528 529 530 531 532 533 534 535 536 537 538 539 540 541 542 543 544 545 546 547 548 549 550 551 552 553 554 555 556 557 558 559 560 561 562 563 564 565 566 567 568 569 570 571 572 573 574 575 576 577 578 579 580 581 582 583 584 585 586 587 588 589 590 591 592 593 594 595 596 597 598 599 600 601 602 603 604 605 606 607 608 609 610 611 612 613 614 615 616 617 618 619 620 621 622 623 624 625 626 627 628 629 630 631 632 633 634 635 636 637 638 639 640 641 642 643 644 645 646 647 648 649 650 651 652 653 654 655 656 657 658 659 660 661 662 663 664 665 666 667 668 669 670 671 672 673 674 675 676 677 678 679 680 681 682 683 684 685 686 687 688 689 690 691 692 693 694 695 696 697 698 699 700 701 702 703 704 705 706 707 708 709 710 711 712 713 714 715 716 717 718 719 720 721 722 723 724 725 726 727 728 729 730 731 732 733 734 735 736 737 738 739 740 741 742 743 744 745 746 747 748 749 750 751 752 753 754 755 756 757 758 759 760 761 762 763 764 765 766 767 768 769 770 771 772 773 774 775 776 777 778 779 780 781 782 783 784 785 786 787 788 789 790 791 792 793 794 795 796 797 798 799 800 801 802 803 804 805 806 807 808 809 810 811 812 813 814 815 816 817 818 819 820 821 822 823 824 825 826 827 828 829 830 831 832 833 834 835 836 837 838 839 840 841 842 843 844 845 846 847 848 849 850 851 852 853 854 855 856 857 858 859 860 861 862 863 864 865 866 867 868 869 870 871 872 873 874 875 876 877 878 879 880 881 882 883 884 885 886 887 888 889 890 891 892 893 894 895 896 897 898 899 900 901 902 903 904 905 906 907 908 909 910 911 912 913 914 915 916 917 918 919 920 921 922 923 924 925 926 927 928 929 930 931 932 933 934 935 936 937 938 939 940 941 942 943 944 945 946 947 948 949 950 951 952 953 954 955 956 957 958 959 960 961 962 963 964 965 966 967 968 969 970 971 972 973 974 975 976 977 978 979 980 981 982 983 984 985 986 987 988 989 990 991 992 993 994 995 996 997 998 999 1000 1001 1002 1003 1004 1005 1006 1007 1008 1009 1010 1011 1012 1013 1014 1015 1016 1017 1018 1019 1020 1021 1022 1023 1024 1025 1026 1027 1028 1029 1030 1031 1032 1033 1034 1035 1036 1037 1038 1039 1040 1041 1042 1043 1044 1045 1046 1047 1048 1049 1050 1051 1052 1053 1054 1055 1056 1057 1058 1059 1060 1061 1062 1063 1064 1065 1066 1067 1068 1069 1070 1071 1072 1073 1074 1075 1076 1077 1078 1079 1080 1081 1082 1083 1084 1085 1086 1087 1088 1089 1090 1091 1092 1093 1094 1095 1096 1097 1098 1099 1100 1101 1102 1103 1104 1105 1106 1107 1108 1109 1110 1111 0
-1111 0
1111 -613 0
1111 -1110 0
-1109 -1108 -1107 -1106 -1105 -1101 -1097 -1093 -1088 -1084 -1072 -1067 -1062 -1057 -1045 -1033 -1021 -938 -855 -772 1110 0
1109 14 0
1109 16 0
1108 93 0
1108 94 0
1107 77 0
1107 76 0
1106 87 0
1106 88 0
1105 -1104 0
1105 77 0
1105 14 0
78 -1051 -1050 -1103 -1102 1104 0
1103 -1048 0
1103 89 0
1102 -1063 0
1102 95 0
1101 -1100 0
1101 76 0
1101 16 0
79 -1078 -1077 -1099 -1098 1100 0
1099 -1075 0
1099 106 0
1098 -1089 0
1098 108 0
1097 -1096 0
1097 88 0
1097 14 0
89 -1027 -1026 -1095 -1094 1096 0
1095 -1024 0
1095 78 0
1094 -1068 0
1094 95 0
1093 -1092 0
1093 87 0
1093 16 0
90 -1074 -1073 -1091 -1090 1092 0
1091 -1079 0
1091 107 0
1090 -1089 0
1090 110 0
96 -1082 -1081 1089 0
1088 -1087 0
1088 94 0
1088 14 0
95 -1039 -1038 -1086 -1085 1087 0
1086 -1036 0
1086 78 0
1085 -1058 0
1085 89 0
1084 -1083 0
1084 93 0
1084 16 0
96 -1082 -1081 -1080 -1076 1083 0
1082 109 0
1082 79 0
1081 111 0
1081 90 0
1080 -1079 0
1080 109 0
79 -1078 -1077 1079 0
1078 106 0
1078 90 0
1077 108 0
1077 96 0
1076 -1075 0
1076 111 0
90 -1074 -1073 1075 0
1074 107 0
1074 79 0
1073 110 0
1073 96 0
1072 -1071 0
1072 88 0
1072 76 0
106 -1023 -1022 -1070 -1069 1071 0
1070 -1028 0
1070 79 0
1069 -1068 0
1069 108 0
111 -1031 -1030 1068 0
1067 -1066 0
1067 87 0
1067 77 0
107 -1047 -1046 -1065 -1064 1066 0
1065 -1052 0
1065 90 0
1064 -1063 0
1064 110 0
109 -1055 -1054 1063 0
1062 -1061 0
1062 94 0
1062 76 0
108 -1035 -1034 -1060 -1059 1061 0
1060 -1040 0
1060 79 0
1059 -1058 0
1059 106 0
110 -1043 -1042 1058 0
1057 -1056 0
1057 93 0
1057 77 0
109 -1055 -1054 -1053 -1049 1056 0
1055 96 0
1055 78 0
1054 111 0
1054 107 0
1053 -1052 0
1053 96 0
78 -1051 -1050 1052 0
1051 107 0
1051 89 0
1050 109 0
1050 95 0
1049 -1048 0
1049 111 0
107 -1047 -1046 1048 0
1047 109 0
1047 110 0
1046 90 0
1046 78 0
1045 -1044 0
1045 94 0
1045 87 0
110 -1043 -1042 -1041 -1037 1044 0
1043 95 0
1043 90 0
1042 107 0
1042 108 0
1041 -1040 0
1041 90 0
95 -1039 -1038 1040 0
1039 110 0
1039 89 0
1038 108 0
1038 78 0
1037 -1036 0
1037 107 0
108 -1035 -1034 1036 0
1035 95 0
1035 79 0
1034 110 0
1034 106 0
1033 -1032 0
1033 93 0
1033 88 0
111 -1031 -1030 -1029 -1025 1032 0
1031 96 0
1031 89 0
1030 109 0
1030 106 0
1029 -1028 0
1029 96 0
89 -1027 -1026 1028 0
1027 106 0
1027 78 0
1026 111 0
1026 95 0
1025 -1024 0
1025 109 0
106 -1023 -1022 1024 0
1023 89 0
1023 79 0
1022 111 0
1022 108 0
1021 -972 0
1021 -988 0
1021 -1004 0
1021 -1020 0
1021 -768 0
1021 -769 0
1021 -770 0
1021 -771 0
-1019 -1014 -1009 1020 0
1019 -963 0
1019 -964 0
1019 -690 0
1019 -965 0
1019 -1015 0
1019 -691 0
1019 -692 0
1019 -966 0
1019 -969 0
1019 -695 0
1019 -696 0
1019 -970 0
1019 -1016 0
1019 -697 0
1019 -1017 0
1019 -1018 0
1019 -104 0
1019 -85 0
1019 -58 0
1019 -57 0
1019 -56 0
1019 -55 0
1019 -52 0
-3 80 1018 0
-6 -80 1017 0
-64 80 1016 0
-67 -80 1015 0
1014 -678 0
1014 -679 0
1014 -680 0
1014 -951 0
1014 -952 0
1014 -956 0
1014 -957 0
1014 -684 0
1014 -958 0
1014 -959 0
1014 -685 0
1014 -1010 0
1014 -1011 0
1014 -1012 0
1014 -1013 0
1014 -102 0
1014 -686 0
1014 -82 0
1014 -37 0
1014 -36 0
1014 -35 0
1014 -34 0
1014 -31 0
-2 80 1013 0
-4 -80 1012 0
-46 -80 1011 0
-43 80 1010 0
1009 -940 0
1009 -1005 0
1009 -667 0
1009 -668 0
1009 -669 0
1009 -941 0
1009 -942 0
1009 -670 0
1009 -671 0
1009 -943 0
1009 -675 0
1009 -947 0
1009 -1006 0
1009 -948 0
1009 -1007 0
1009 -1008 0
1009 -100 0
1009 -74 0
1009 -13 0
1009 -12 0
1009 -11 0
1009 -10 0
1009 -7 0
-1 80 1008 0
-5 -80 1007 0
-25 -80 1006 0
-22 80 1005 0
-1003 -998 -993 1004 0
1003 -999 0
1003 -963 0
1003 -964 0
1003 -965 0
1003 -724 0
1003 -966 0
1003 -1000 0
1003 -1001 0
1003 -725 0
1003 -1002 0
1003 -727 0
1003 -969 0
1003 -970 0
1003 -729 0
1003 -730 0
1003 -731 0
1003 -104 0
1003 -99 0
1003 -85 0
1003 -84 0
1003 -58 0
1003 -57 0
1003 -55 0
-6 -108 1002 0
-3 108 1001 0
-67 -109 1000 0
-64 109 999 0
998 -994 0
998 -712 0
998 -951 0
998 -713 0
998 -952 0
998 -714 0
998 -995 0
998 -996 0
998 -997 0
998 -717 0
998 -956 0
998 -957 0
998 -958 0
998 -719 0
998 -959 0
998 -720 0
998 -102 0
998 -98 0
998 -82 0
998 -81 0
998 -37 0
998 -36 0
998 -34 0
-4 -108 997 0
-2 108 996 0
-43 109 995 0
-46 -109 994 0
993 -703 0
993 -940 0
993 -941 0
993 -942 0
993 -943 0
993 -704 0
993 -705 0
993 -989 0
993 -990 0
993 -991 0
993 -992 0
993 -947 0
993 -707 0
993 -708 0
993 -709 0
993 -948 0
993 -100 0
993 -92 0
993 -74 0
993 -73 0
993 -13 0
993 -12 0
993 -10 0
-22 109 992 0
-5 -108 991 0
-1 108 990 0
-25 -109 989 0
-987 -982 -977 988 0
987 -757 0
987 -983 0
987 -963 0
987 -964 0
987 -965 0
987 -984 0
987 -966 0
987 -759 0
987 -760 0
987 -761 0
987 -762 0
987 -985 0
987 -986 0
987 -969 0
987 -970 0
987 -105 0
987 -104 0
987 -765 0
987 -84 0
987 -57 0
987 -56 0
987 -55 0
987 -54 0
-6 -79 986 0
-3 79 985 0
-67 -78 984 0
-64 78 983 0
982 -746 0
982 -747 0
982 -978 0
982 -979 0
982 -951 0
982 -952 0
982 -749 0
982 -956 0
982 -957 0
982 -750 0
982 -751 0
982 -980 0
982 -981 0
982 -958 0
982 -959 0
982 -754 0
982 -103 0
982 -102 0
982 -81 0
982 -36 0
982 -35 0
982 -34 0
982 -33 0
-4 -79 981 0
-2 79 980 0
-43 78 979 0
-46 -78 978 0
977 -940 0
977 -941 0
977 -942 0
977 -943 0
977 -737 0
977 -738 0
977 -739 0
977 -973 0
977 -974 0
977 -740 0
977 -975 0
977 -976 0
977 -947 0
977 -948 0
977 -742 0
977 -743 0
977 -101 0
977 -100 0
977 -73 0
977 -12 0
977 -11 0
977 -10 0
977 -9 0
-5 -79 976 0
-1 79 975 0
-25 -78 974 0
-22 78 973 0
-971 -960 -949 972 0
971 -961 0
971 -962 0
971 -963 0
971 -964 0
971 -965 0
971 -966 0
971 -651 0
971 -652 0
971 -653 0
971 -654 0
971 -967 0
971 -968 0
971 -969 0
971 -970 0
971 -662 0
971 -663 0
971 -104 0
971 -86 0
971 -85 0
971 -84 0
971 -58 0
971 -56 0
971 -55 0
-69 -76 970 0
-59 76 969 0
-6 -106 968 0
-3 106 967 0
-71 -77 966 0
-63 80 965 0
-66 -80 964 0
-60 77 963 0
-67 -107 962 0
-64 107 961 0
960 -950 0
960 -951 0
960 -952 0
960 -632 0
960 -633 0
960 -634 0
960 -953 0
960 -954 0
960 -955 0
960 -639 0
960 -956 0
960 -957 0
960 -958 0
960 -959 0
960 -645 0
960 -646 0
960 -102 0
960 -83 0
960 -82 0
960 -81 0
960 -37 0
960 -35 0
960 -34 0
-42 80 959 0
-38 76 958 0
-48 -76 957 0
-45 -80 956 0
-43 107 955 0
-4 -106 954 0
-2 106 953 0
-39 77 952 0
-50 -77 951 0
-46 -107 950 0
949 -939 0
949 -940 0
949 -941 0
949 -942 0
949 -943 0
949 -944 0
949 -945 0
949 -946 0
949 -621 0
949 -622 0
949 -623 0
949 -624 0
949 -947 0
949 -948 0
949 -628 0
949 -629 0
949 -100 0
949 -75 0
949 -74 0
949 -73 0
949 -13 0
949 -11 0
949 -10 0
-24 -80 948 0
-15 76 947 0
-22 107 946 0
-5 -106 945 0
-1 106 944 0
-17 77 943 0
-27 -76 942 0
-29 -77 941 0
-21 80 940 0
-25 -107 939 0
938 -889 0
938 -905 0
938 -921 0
938 -937 0
938 -768 0
938 -769 0
938 -770 0
938 -771 0
-936 -931 -926 937 0
936 -757 0
936 -932 0
936 -878 0
936 -880 0
936 -759 0
936 -760 0
936 -761 0
936 -762 0
936 -933 0
936 -881 0
936 -934 0
936 -882 0
936 -883 0
936 -885 0
936 -935 0
936 -104 0
936 -765 0
936 -84 0
936 -58 0
936 -57 0
936 -56 0
936 -55 0
936 -54 0
-64 89 935 0
-67 -89 934 0
-6 -90 933 0
-3 90 932 0
931 -746 0
931 -747 0
931 -927 0
931 -868 0
931 -869 0
931 -870 0
931 -871 0
931 -928 0
931 -749 0
931 -750 0
931 -751 0
931 -873 0
931 -929 0
931 -930 0
931 -754 0
931 -875 0
931 -102 0
931 -81 0
931 -37 0
931 -36 0
931 -35 0
931 -34 0
931 -33 0
-46 -89 930 0
-43 89 929 0
-4 -90 928 0
-2 90 927 0
926 -922 0
926 -857 0
926 -858 0
926 -923 0
926 -859 0
926 -924 0
926 -861 0
926 -737 0
926 -738 0
926 -739 0
926 -740 0
926 -863 0
926 -925 0
926 -742 0
926 -743 0
926 -864 0
926 -100 0
926 -73 0
926 -13 0
926 -12 0
926 -11 0
926 -10 0
926 -9 0
-25 -89 925 0
-22 89 924 0
-5 -90 923 0
-1 90 922 0
-920 -915 -910 921 0
920 -916 0
920 -724 0
920 -878 0
920 -880 0
920 -917 0
920 -918 0
920 -725 0
920 -919 0
920 -727 0
920 -881 0
920 -882 0
920 -883 0
920 -729 0
920 -885 0
920 -730 0
920 -731 0
920 -104 0
920 -99 0
920 -86 0
920 -85 0
920 -84 0
920 -58 0
920 -55 0
-6 -110 919 0
-67 -111 918 0
-3 110 917 0
-64 111 916 0
915 -911 0
915 -712 0
915 -713 0
915 -868 0
915 -869 0
915 -870 0
915 -871 0
915 -912 0
915 -913 0
915 -714 0
915 -914 0
915 -717 0
915 -719 0
915 -873 0
915 -720 0
915 -875 0
915 -102 0
915 -98 0
915 -83 0
915 -82 0
915 -81 0
915 -37 0
915 -34 0
-43 111 914 0
-4 -110 913 0
-2 110 912 0
-46 -111 911 0
910 -906 0
910 -703 0
910 -857 0
910 -858 0
910 -907 0
910 -908 0
910 -704 0
910 -705 0
910 -909 0
910 -859 0
910 -861 0
910 -707 0
910 -863 0
910 -708 0
910 -709 0
910 -864 0
910 -100 0
910 -92 0
910 -75 0
910 -74 0
910 -73 0
910 -13 0
910 -10 0
-22 111 909 0
-5 -110 908 0
-1 110 907 0
-25 -111 906 0
-904 -899 -894 905 0
904 -690 0
904 -900 0
904 -878 0
904 -691 0
904 -692 0
904 -880 0
904 -901 0
904 -902 0
904 -881 0
904 -882 0
904 -883 0
904 -695 0
904 -696 0
904 -903 0
904 -885 0
904 -697 0
904 -105 0
904 -104 0
904 -85 0
904 -84 0
904 -57 0
904 -56 0
904 -55 0
-64 106 903 0
-6 -107 902 0
-3 107 901 0
-67 -106 900 0
899 -678 0
899 -679 0
899 -680 0
899 -868 0
899 -869 0
899 -870 0
899 -871 0
899 -895 0
899 -896 0
899 -684 0
899 -897 0
899 -873 0
899 -898 0
899 -685 0
899 -875 0
899 -103 0
899 -102 0
899 -686 0
899 -82 0
899 -81 0
899 -36 0
899 -35 0
899 -34 0
-43 106 898 0
-46 -106 897 0
-4 -107 896 0
-2 107 895 0
894 -667 0
894 -668 0
894 -669 0
894 -670 0
894 -671 0
894 -857 0
894 -858 0
894 -890 0
894 -891 0
894 -859 0
894 -892 0
894 -861 0
894 -675 0
894 -893 0
894 -863 0
894 -864 0
894 -101 0
894 -100 0
894 -74 0
894 -73 0
894 -12 0
894 -11 0
894 -10 0
-25 -106 893 0
-22 106 892 0
-5 -107 891 0
-1 107 890 0
-888 -877 -866 889 0
888 -878 0
888 -879 0
888 -651 0
888 -880 0
888 -652 0
888 -653 0
888 -654 0
888 -881 0
888 -882 0
888 -883 0
888 -662 0
888 -663 0
888 -884 0
888 -885 0
888 -886 0
888 -887 0
888 -104 0
888 -85 0
888 -58 0
888 -57 0
888 -56 0
888 -55 0
888 -52 0
-3 91 887 0
-6 -91 886 0
-63 91 885 0
-64 91 884 0
-60 88 883 0
-69 -87 882 0
-59 87 881 0
-71 -88 880 0
-67 -91 879 0
-66 -91 878 0
877 -867 0
877 -868 0
877 -632 0
877 -869 0
877 -633 0
877 -870 0
877 -871 0
877 -634 0
877 -639 0
877 -872 0
877 -873 0
877 -874 0
877 -875 0
877 -645 0
877 -646 0
877 -876 0
877 -102 0
877 -82 0
877 -37 0
877 -36 0
877 -35 0
877 -34 0
877 -31 0
-2 91 876 0
-42 91 875 0
-43 91 874 0
-45 -91 873 0
-46 -91 872 0
-39 88 871 0
-50 -88 870 0
-48 -87 869 0
-38 87 868 0
-4 -91 867 0
866 -856 0
866 -857 0
866 -858 0
866 -859 0
866 -860 0
866 -621 0
866 -622 0
866 -861 0
866 -623 0
866 -624 0
866 -862 0
866 -863 0
866 -864 0
866 -628 0
866 -629 0
866 -865 0
866 -100 0
866 -74 0
866 -13 0
866 -12 0
866 -11 0
866 -10 0
866 -7 0
-5 -91 865 0
-21 91 864 0
-24 -91 863 0
-25 -91 862 0
-27 -87 861 0
-22 91 860 0
-29 -88 859 0
-17 88 858 0
-15 87 857 0
-1 91 856 0
855 -806 0
855 -822 0
855 -838 0
855 -854 0
855 -768 0
855 -769 0
855 -770 0
855 -771 0
-853 -848 -843 854 0
853 -796 0
853 -797 0
853 -849 0
853 -798 0
853 -724 0
853 -850 0
853 -725 0
853 -851 0
853 -799 0
853 -801 0
853 -727 0
853 -852 0
853 -729 0
853 -730 0
853 -731 0
853 -99 0
853 -804 0
853 -85 0
853 -84 0
853 -58 0
853 -57 0
853 -55 0
853 -53 0
-67 -96 852 0
-64 96 851 0
-6 -95 850 0
-3 95 849 0
848 -785 0
848 -786 0
848 -844 0
848 -712 0
848 -713 0
848 -714 0
848 -845 0
848 -717 0
848 -846 0
848 -788 0
848 -789 0
848 -790 0
848 -791 0
848 -847 0
848 -719 0
848 -720 0
848 -98 0
848 -82 0
848 -81 0
848 -37 0
848 -36 0
848 -34 0
848 -32 0
-46 -96 847 0
-43 96 846 0
-4 -95 845 0
-2 95 844 0
843 -839 0
843 -840 0
843 -703 0
843 -773 0
843 -704 0
843 -705 0
843 -841 0
843 -774 0
843 -777 0
843 -842 0
843 -707 0
843 -708 0
843 -709 0
843 -778 0
843 -779 0
843 -92 0
843 -782 0
843 -74 0
843 -73 0
843 -13 0
843 -12 0
843 -10 0
843 -8 0
-25 -96 842 0
-22 96 841 0
-5 -95 840 0
-1 95 839 0
-837 -832 -827 838 0
837 -796 0
837 -797 0
837 -798 0
837 -690 0
837 -691 0
837 -833 0
837 -692 0
837 -834 0
837 -799 0
837 -801 0
837 -835 0
837 -836 0
837 -695 0
837 -696 0
837 -697 0
837 -804 0
837 -86 0
837 -85 0
837 -84 0
837 -58 0
837 -56 0
837 -55 0
837 -53 0
-6 -78 836 0
-3 78 835 0
-64 79 834 0
-67 -79 833 0
832 -785 0
832 -786 0
832 -678 0
832 -679 0
832 -680 0
832 -828 0
832 -829 0
832 -788 0
832 -789 0
832 -790 0
832 -684 0
832 -791 0
832 -830 0
832 -831 0
832 -685 0
832 -686 0
832 -83 0
832 -82 0
832 -81 0
832 -37 0
832 -35 0
832 -34 0
832 -32 0
-4 -78 831 0
-2 78 830 0
-46 -79 829 0
-43 79 828 0
827 -667 0
827 -668 0
827 -669 0
827 -670 0
827 -671 0
827 -773 0
827 -774 0
827 -823 0
827 -777 0
827 -675 0
827 -824 0
827 -825 0
827 -778 0
827 -779 0
827 -826 0
827 -782 0
827 -75 0
827 -74 0
827 -73 0
827 -13 0
827 -11 0
827 -10 0
827 -8 0
-25 -79 826 0
-5 -78 825 0
-1 78 824 0
-22 79 823 0
-821 -816 -811 822 0
821 -796 0
821 -797 0
821 -798 0
821 -651 0
821 -652 0
821 -817 0
821 -653 0
821 -654 0
821 -818 0
821 -799 0
821 -801 0
821 -819 0
821 -662 0
821 -663 0
821 -820 0
821 -804 0
821 -85 0
821 -84 0
821 -58 0
821 -57 0
821 -56 0
821 -55 0
821 -53 0
-64 90 820 0
-6 -89 819 0
-3 89 818 0
-67 -90 817 0
816 -785 0
816 -786 0
816 -632 0
816 -633 0
816 -634 0
816 -639 0
816 -812 0
816 -813 0
816 -788 0
816 -789 0
816 -790 0
816 -791 0
816 -814 0
816 -815 0
816 -645 0
816 -646 0
816 -82 0
816 -81 0
816 -37 0
816 -36 0
816 -35 0
816 -34 0
816 -32 0
-43 90 815 0
-46 -90 814 0
-4 -89 813 0
-2 89 812 0
811 -773 0
811 -807 0
811 -621 0
811 -622 0
811 -808 0
811 -809 0
811 -623 0
811 -624 0
811 -774 0
811 -777 0
811 -810 0
811 -778 0
811 -779 0
811 -628 0
811 -629 0
811 -782 0
811 -74 0
811 -73 0
811 -13 0
811 -12 0
811 -11 0
811 -10 0
811 -8 0
-25 -90 810 0
-5 -89 809 0
-1 89 808 0
-22 90 807 0
-805 -794 -783 806 0
805 -795 0
805 -796 0
805 -797 0
805 -757 0
805 -798 0
805 -759 0
805 -799 0
805 -800 0
805 -760 0
805 -761 0
805 -801 0
805 -762 0
805 -802 0
805 -803 0
805 -765 0
805 -804 0
805 -58 0
805 -57 0
805 -56 0
805 -55 0
805 -54 0
805 -53 0
805 -52 0
-20 -66 804 0
-3 20 803 0
-6 -20 802 0
-14 -69 801 0
-20 -67 800 0
16 -60 799 0
-16 -71 798 0
20 -63 797 0
14 -59 796 0
20 -64 795 0
794 -784 0
794 -785 0
794 -786 0
794 -746 0
794 -747 0
794 -787 0
794 -749 0
794 -788 0
794 -789 0
794 -790 0
794 -750 0
794 -751 0
794 -791 0
794 -754 0
794 -792 0
794 -793 0
794 -37 0
794 -36 0
794 -35 0
794 -34 0
794 -33 0
794 -32 0
794 -31 0
-2 20 793 0
-4 -20 792 0
-39 16 791 0
-38 14 790 0
-16 -50 789 0
-14 -48 788 0
-20 -46 787 0
-20 -45 786 0
20 -42 785 0
20 -43 784 0
783 -773 0
783 -737 0
783 -738 0
783 -774 0
783 -739 0
783 -775 0
783 -776 0
783 -777 0
783 -740 0
783 -778 0
783 -742 0
783 -743 0
783 -779 0
783 -780 0
783 -781 0
783 -782 0
783 -13 0
783 -12 0
783 -11 0
783 -10 0
783 -9 0
783 -8 0
783 -7 0
-17 16 782 0
-1 20 781 0
-5 -20 780 0
-15 14 779 0
-21 20 778 0
-20 -24 777 0
-22 20 776 0
-20 -25 775 0
-16 -29 774 0
-14 -27 773 0
772 -665 0
772 -699 0
772 -733 0
772 -767 0
772 -768 0
772 -769 0
772 -770 0
772 -771 0
-5 4 771 0
-4 6 770 0
-3 2 769 0
-2 1 768 0
-766 -755 -744 767 0
766 -649 0
766 -756 0
766 -757 0
766 -650 0
766 -656 0
766 -758 0
766 -759 0
766 -760 0
766 -761 0
766 -762 0
766 -763 0
766 -659 0
766 -764 0
766 -660 0
766 -661 0
766 -114 0
766 -104 0
766 -765 0
766 -84 0
766 -58 0
766 -57 0
766 -56 0
766 -54 0
-16 -72 765 0
-64 95 764 0
-67 -95 763 0
14 -61 762 0
-20 -68 761 0
20 -65 760 0
-14 -70 759 0
-6 -96 758 0
16 -62 757 0
-3 96 756 0
755 -745 0
755 -746 0
755 -747 0
755 -748 0
755 -638 0
755 -749 0
755 -750 0
755 -751 0
755 -640 0
755 -752 0
755 -641 0
755 -753 0
755 -642 0
755 -643 0
755 -644 0
755 -754 0
755 -113 0
755 -102 0
755 -81 0
755 -37 0
755 -36 0
755 -35 0
755 -33 0
-16 -51 754 0
-43 95 753 0
-46 -95 752 0
16 -41 751 0
14 -40 750 0
-14 -49 749 0
-4 -96 748 0
-20 -47 747 0
20 -44 746 0
-2 96 745 0
744 -734 0
744 -735 0
744 -615 0
744 -736 0
744 -619 0
744 -620 0
744 -737 0
744 -738 0
744 -739 0
744 -740 0
744 -741 0
744 -625 0
744 -626 0
744 -627 0
744 -742 0
744 -743 0
744 -112 0
744 -100 0
744 -73 0
744 -13 0
744 -12 0
744 -11 0
744 -9 0
-23 20 743 0
-20 -26 742 0
-25 -95 741 0
-19 16 740 0
-16 -30 739 0
-18 14 738 0
-14 -28 737 0
-22 95 736 0
-5 -96 735 0
-1 96 734 0
-732 -721 -710 733 0
732 -722 0
732 -723 0
732 -649 0
732 -650 0
732 -724 0
732 -656 0
732 -725 0
732 -726 0
732 -727 0
732 -728 0
732 -659 0
732 -729 0
732 -660 0
732 -661 0
732 -730 0
732 -731 0
732 -114 0
732 -104 0
732 -99 0
732 -85 0
732 -58 0
732 -57 0
732 -52 0
-70 -93 731 0
-61 93 730 0
-62 94 729 0
-67 -97 728 0
-68 -97 727 0
-64 97 726 0
-65 97 725 0
-72 -94 724 0
-3 97 723 0
-6 -97 722 0
721 -711 0
721 -712 0
721 -713 0
721 -714 0
721 -715 0
721 -716 0
721 -717 0
721 -638 0
721 -640 0
721 -718 0
721 -641 0
721 -642 0
721 -719 0
721 -643 0
721 -644 0
721 -720 0
721 -113 0
721 -102 0
721 -98 0
721 -82 0
721 -37 0
721 -36 0
721 -31 0
-51 -94 720 0
-41 94 719 0
-46 -97 718 0
-47 -97 717 0
-43 97 716 0
-4 -97 715 0
-40 93 714 0
-49 -93 713 0
-44 97 712 0
-2 97 711 0
710 -700 0
710 -701 0
710 -702 0
710 -703 0
710 -615 0
710 -704 0
710 -705 0
710 -619 0
710 -620 0
710 -706 0
710 -707 0
710 -708 0
710 -625 0
710 -626 0
710 -627 0
710 -709 0
710 -112 0
710 -100 0
710 -92 0
710 -74 0
710 -13 0
710 -12 0
710 -7 0
-19 94 709 0
-18 93 708 0
-28 -93 707 0
-25 -97 706 0
-30 -94 705 0
-23 97 704 0
-26 -97 703 0
-5 -97 702 0
-22 97 701 0
-1 97 700 0
-698 -687 -676 699 0
698 -688 0
698 -649 0
698 -689 0
698 -650 0
698 -690 0
698 -691 0
698 -692 0
698 -656 0
698 -693 0
698 -694 0
698 -695 0
698 -696 0
698 -659 0
698 -660 0
698 -661 0
698 -697 0
698 -114 0
698 -104 0
698 -85 0
698 -84 0
698 -58 0
698 -57 0
698 -56 0
-65 80 697 0
-70 -76 696 0
-61 76 695 0
-6 -109 694 0
-3 109 693 0
-62 77 692 0
-72 -77 691 0
-68 -80 690 0
-67 -108 689 0
-64 108 688 0
687 -677 0
687 -678 0
687 -679 0
687 -680 0
687 -681 0
687 -682 0
687 -683 0
687 -638 0
687 -684 0
687 -640 0
687 -641 0
687 -642 0
687 -643 0
687 -644 0
687 -685 0
687 -113 0
687 -102 0
687 -686 0
687 -82 0
687 -81 0
687 -37 0
687 -36 0
687 -35 0
-40 76 686 0
-47 -80 685 0
-51 -77 684 0
-4 -109 683 0
-2 109 682 0
-43 108 681 0
-49 -76 680 0
-41 77 679 0
-44 80 678 0
-46 -108 677 0
676 -666 0
676 -667 0
676 -668 0
676 -669 0
676 -670 0
676 -671 0
676 -615 0
676 -672 0
676 -673 0
676 -674 0
676 -619 0
676 -620 0
676 -675 0
676 -625 0
676 -626 0
676 -627 0
676 -112 0
676 -100 0
676 -74 0
676 -73 0
676 -13 0
676 -12 0
676 -11 0
-19 77 675 0
-5 -109 674 0
-1 109 673 0
-22 108 672 0
-26 -80 671 0
-18 76 670 0
-23 80 669 0
-30 -77 668 0
-28 -76 667 0
-25 -108 666 0
-664 -647 -630 665 0
664 -648 0
664 -649 0
664 -650 0
664 -651 0
664 -652 0
664 -653 0
664 -654 0
664 -655 0
664 -656 0
664 -657 0
664 -658 0
664 -659 0
664 -660 0
664 -661 0
664 -662 0
664 -663 0
664 -114 0
664 -105 0
664 -104 0
664 -85 0
664 -84 0
664 -57 0
664 -56 0
-68 -91 663 0
-65 91 662 0
-71 -94 661 0
-69 -93 660 0
-60 94 659 0
-6 -111 658 0
-3 111 657 0
-66 -97 656 0
-67 -110 655 0
-62 88 654 0
-61 87 653 0
-70 -87 652 0
-72 -88 651 0
-59 93 650 0
-63 97 649 0
-64 110 648 0
647 -631 0
647 -632 0
647 -633 0
647 -634 0
647 -635 0
647 -636 0
647 -637 0
647 -638 0
647 -639 0
647 -640 0
647 -641 0
647 -642 0
647 -643 0
647 -644 0
647 -645 0
647 -646 0
647 -113 0
647 -103 0
647 -102 0
647 -82 0
647 -81 0
647 -36 0
647 -35 0
-47 -91 646 0
-44 91 645 0
-38 93 644 0
-50 -94 643 0
-39 94 642 0
-48 -93 641 0
-45 -97 640 0
-51 -88 639 0
-42 97 638 0
-4 -111 637 0
-2 111 636 0
-43 110 635 0
-40 87 634 0
-49 -87 633 0
-41 88 632 0
-46 -110 631 0
630 -614 0
630 -615 0
630 -616 0
630 -617 0
630 -618 0
630 -619 0
630 -620 0
630 -621 0
630 -622 0
630 -623 0
630 -624 0
630 -625 0
630 -626 0
630 -627 0
630 -628 0
630 -629 0
630 -112 0
630 -101 0
630 -100 0
630 -74 0
630 -73 0
630 -12 0
630 -11 0
-26 -91 629 0
-23 91 628 0
-15 93 627 0
-29 -94 626 0
-27 -93 625 0
-18 87 624 0
-30 -88 623 0
-28 -87 622 0
-19 88 621 0
-24 -97 620 0
-21 97 619 0
-22 110 618 0
-5 -111 617 0
-1 111 616 0
-17 94 615 0
-25 -110 614 0
-612 -523 613 0
612 -535 0
612 -547 0
612 -559 0
612 -564 0
612 -569 0
612 -574 0
612 -586 0
612 -590 0
612 -595 0
612 -599 0
612 -603 0
612 -607 0
612 -608 0
612 -609 0
612 -610 0
612 -611 0
-14 -16 611 0
-93 -94 610 0
-76 -77 609 0
-87 -88 608 0
-14 -77 -606 607 0
606 -604 0
606 -605 0
606 -552 0
606 -553 0
606 -78 0
-89 -550 605 0
-95 -565 604 0
-16 -76 -602 603 0
602 -600 0
602 -601 0
602 -579 0
602 -580 0
602 -79 0
-106 -577 601 0
-108 -591 600 0
-14 -88 -598 599 0
598 -596 0
598 -597 0
598 -528 0
598 -529 0
598 -89 0
-78 -526 597 0
-95 -570 596 0
-16 -87 -594 595 0
594 -592 0
594 -593 0
594 -575 0
594 -576 0
594 -90 0
-107 -581 593 0
-110 -591 592 0
591 -583 0
591 -584 0
591 -96 0
-14 -94 -589 590 0
589 -587 0
589 -588 0
589 -540 0
589 -541 0
589 -95 0
-78 -538 588 0
-89 -560 587 0
-16 -93 -585 586 0
585 -578 0
585 -582 0
585 -583 0
585 -584 0
585 -96 0
-79 -109 584 0
-90 -111 583 0
-109 -581 582 0
581 -579 0
581 -580 0
581 -79 0
-90 -106 580 0
-96 -108 579 0
-111 -577 578 0
577 -575 0
577 -576 0
577 -90 0
-79 -107 576 0
-96 -110 575 0
-76 -88 -573 574 0
573 -571 0
573 -572 0
573 -524 0
573 -525 0
573 -106 0
-79 -530 572 0
-108 -570 571 0
570 -532 0
570 -533 0
570 -111 0
-77 -87 -568 569 0
568 -566 0
568 -567 0
568 -548 0
568 -549 0
568 -107 0
-90 -554 567 0
-110 -565 566 0
565 -556 0
565 -557 0
565 -109 0
-76 -94 -563 564 0
563 -561 0
563 -562 0
563 -536 0
563 -537 0
563 -108 0
-79 -542 562 0
-106 -560 561 0
560 -544 0
560 -545 0
560 -110 0
-77 -93 -558 559 0
558 -551 0
558 -555 0
558 -556 0
558 -557 0
558 -109 0
-78 -96 557 0
-107 -111 556 0
-96 -554 555 0
554 -552 0
554 -553 0
554 -78 0
-89 -107 553 0
-95 -109 552 0
-111 -550 551 0
550 -548 0
550 -549 0
550 -107 0
-109 -110 549 0
-78 -90 548 0
-87 -94 -546 547 0
546 -539 0
546 -543 0
546 -544 0
546 -545 0
546 -110 0
-90 -95 545 0
-107 -108 544 0
-90 -542 543 0
542 -540 0
542 -541 0
542 -95 0
-89 -110 541 0
-78 -108 540 0
-107 -538 539 0
538 -536 0
538 -537 0
538 -108 0
-79 -95 537 0
-106 -110 536 0
-88 -93 -534 535 0
534 -527 0
534 -531 0
534 -532 0
534 -533 0
534 -111 0
-89 -96 533 0
-106 -109 532 0
-96 -530 531 0
530 -528 0
530 -529 0
530 -89 0
-78 -106 529 0
-95 -111 528 0
-109 -526 527 0
526 -524 0
526 -525 0
526 -106 0
-79 -89 525 0
-108 -111 524 0
523 -273 0
523 -356 0
523 -439 0
523 -522 0
-272 -271 -270 -269 -521 -505 -489 -473 522 0
521 -510 0
521 -515 0
521 -520 0
56 55 52 58 57 85 104 -519 -518 -198 -517 -471 -197 -196 -470 -467 -193 -192 -516 -466 -191 -465 -464 520 0
519 80 0
519 6 0
518 -80 0
518 3 0
517 64 0
517 -80 0
516 80 0
516 67 0
31 35 37 36 34 82 -187 102 -514 -513 -512 -511 -186 -460 -459 -185 -458 -457 -453 -452 -181 -180 -179 515 0
514 80 0
514 4 0
513 -80 0
513 2 0
512 80 0
512 46 0
511 43 0
511 -80 0
13 7 12 11 10 74 100 -509 -508 -449 -507 -448 -176 -444 -172 -171 -443 -442 -170 -169 -168 -506 -441 510 0
509 80 0
509 5 0
508 -80 0
508 1 0
507 80 0
507 25 0
506 -80 0
506 22 0
505 -494 0
505 -499 0
505 -504 0
55 58 57 85 84 99 104 -232 -231 -230 -471 -470 -228 -503 -226 -502 -501 -467 -225 -466 -465 -464 -500 504 0
503 108 0
503 6 0
502 -108 0
502 3 0
501 109 0
501 67 0
500 -109 0
500 64 0
37 36 34 81 82 98 102 -221 -460 -220 -459 -458 -457 -218 -498 -497 -496 -215 -453 -214 -452 -213 -495 499 0
498 108 0
498 4 0
497 -108 0
497 2 0
496 -109 0
496 43 0
495 109 0
495 46 0
13 12 10 74 73 100 92 -449 -210 -209 -208 -448 -493 -492 -491 -490 -206 -205 -444 -443 -442 -441 -204 494 0
493 -109 0
493 22 0
492 108 0
492 5 0
491 -108 0
491 1 0
490 109 0
490 25 0
489 -478 0
489 -483 0
489 -488 0
54 56 55 57 84 -266 105 104 -471 -470 -487 -486 -263 -262 -261 -260 -467 -485 -466 -465 -464 -484 -258 488 0
487 79 0
487 6 0
486 -79 0
486 3 0
485 78 0
485 67 0
484 64 0
484 -78 0
33 35 36 34 81 103 102 -255 -460 -459 -482 -481 -252 -251 -458 -457 -250 -453 -452 -480 -479 -248 -247 483 0
482 79 0
482 4 0
481 -79 0
481 2 0
480 43 0
480 -78 0
479 78 0
479 46 0
9 12 11 10 73 101 100 -244 -243 -449 -448 -477 -476 -241 -475 -474 -240 -239 -238 -444 -443 -442 -441 478 0
477 79 0
477 5 0
476 -79 0
476 1 0
475 78 0
475 25 0
474 -78 0
474 22 0
473 -450 0
473 -461 0
473 -472 0
56 55 58 86 85 84 104 -164 -163 -471 -470 -469 -468 -155 -154 -153 -152 -467 -466 -465 -464 -463 -462 472 0
471 69 0
471 76 0
470 59 0
470 -76 0
469 106 0
469 6 0
468 -106 0
468 3 0
467 71 0
467 77 0
466 63 0
466 -80 0
465 80 0
465 66 0
464 60 0
464 -77 0
463 107 0
463 67 0
462 -107 0
462 64 0
35 37 34 81 83 82 102 -147 -146 -460 -459 -458 -457 -140 -456 -455 -454 -135 -134 -133 -453 -452 -451 461 0
460 42 0
460 -80 0
459 -76 0
459 38 0
458 48 0
458 76 0
457 80 0
457 45 0
456 -107 0
456 43 0
455 106 0
455 4 0
454 -106 0
454 2 0
453 -77 0
453 39 0
452 77 0
452 50 0
451 107 0
451 46 0
13 11 10 75 74 73 100 -130 -129 -449 -448 -125 -124 -123 -122 -447 -446 -445 -444 -443 -442 -441 -440 450 0
449 80 0
449 24 0
448 -76 0
448 15 0
447 -107 0
447 22 0
446 106 0
446 5 0
445 -106 0
445 1 0
444 -77 0
444 17 0
443 76 0
443 27 0
442 77 0
442 29 0
441 -80 0
441 21 0
440 107 0
440 25 0
-272 -271 -270 -269 -438 -422 -406 -390 439 0
438 -427 0
438 -432 0
438 -437 0
54 56 55 58 57 84 -266 104 -436 -386 -384 -383 -435 -382 -434 -263 -262 -261 -260 -381 -379 -433 -258 437 0
436 -89 0
436 64 0
435 89 0
435 67 0
434 90 0
434 6 0
433 -90 0
433 3 0
33 35 37 36 34 81 102 -376 -255 -431 -430 -374 -252 -251 -250 -429 -372 -371 -370 -369 -428 -248 -247 432 0
431 89 0
431 46 0
430 -89 0
430 43 0
429 90 0
429 4 0
428 -90 0
428 2 0
13 9 12 11 10 73 100 -365 -244 -243 -426 -364 -241 -240 -239 -238 -362 -425 -360 -424 -359 -358 -423 427 0
426 89 0
426 25 0
425 -89 0
425 22 0
424 90 0
424 5 0
423 -90 0
423 1 0
422 -411 0
422 -416 0
422 -421 0
55 58 86 85 84 99 104 -232 -231 -386 -230 -384 -383 -382 -228 -420 -226 -419 -418 -381 -379 -225 -417 421 0
420 110 0
420 6 0
419 111 0
419 67 0
418 -110 0
418 3 0
417 -111 0
417 64 0
37 34 81 83 82 98 102 -376 -221 -374 -220 -218 -415 -215 -414 -413 -372 -371 -370 -369 -214 -213 -412 416 0
415 -111 0
415 43 0
414 110 0
414 4 0
413 -110 0
413 2 0
412 111 0
412 46 0
13 10 75 74 73 100 92 -365 -210 -209 -364 -208 -362 -360 -410 -206 -205 -409 -408 -359 -358 -204 -407 411 0
410 -111 0
410 22 0
409 110 0
409 5 0
408 -110 0
408 1 0
407 111 0
407 25 0
406 -395 0
406 -400 0
406 -405 0
56 55 57 85 84 105 104 -198 -386 -404 -197 -196 -384 -383 -382 -403 -402 -381 -193 -192 -379 -401 -191 405 0
404 -106 0
404 64 0
403 107 0
403 6 0
402 -107 0
402 3 0
401 106 0
401 67 0
35 36 34 81 82 -187 103 102 -376 -186 -399 -374 -398 -185 -397 -396 -372 -371 -370 -369 -181 -180 -179 400 0
399 -106 0
399 43 0
398 106 0
398 46 0
397 107 0
397 4 0
396 -107 0
396 2 0
12 11 10 74 73 101 100 -365 -364 -394 -176 -362 -393 -360 -392 -391 -359 -358 -172 -171 -170 -169 -168 395 0
394 106 0
394 25 0
393 -106 0
393 22 0
392 107 0
392 5 0
391 -107 0
391 1 0
390 -367 0
390 -378 0
390 -389 0
56 55 52 58 57 85 104 -388 -387 -386 -385 -164 -163 -384 -383 -382 -155 -154 -153 -381 -152 -380 -379 389 0
388 -91 0
388 3 0
387 91 0
387 6 0
386 -91 0
386 63 0
385 -91 0
385 64 0
384 -88 0
384 60 0
383 87 0
383 69 0
382 -87 0
382 59 0
381 88 0
381 71 0
380 91 0
380 67 0
379 91 0
379 66 0
31 35 37 36 34 82 102 -377 -147 -146 -376 -375 -374 -373 -140 -135 -372 -371 -134 -370 -133 -369 -368 378 0
377 -91 0
377 2 0
376 -91 0
376 42 0
375 -91 0
375 43 0
374 91 0
374 45 0
373 91 0
373 46 0
372 -88 0
372 39 0
371 88 0
371 50 0
370 87 0
370 48 0
369 -87 0
369 38 0
368 91 0
368 4 0
13 7 12 11 10 74 100 -366 -130 -129 -365 -364 -363 -125 -124 -362 -123 -122 -361 -360 -359 -358 -357 367 0
366 91 0
366 5 0
365 -91 0
365 21 0
364 91 0
364 24 0
363 91 0
363 25 0
362 87 0
362 27 0
361 -91 0
361 22 0
360 88 0
360 29 0
359 -88 0
359 17 0
358 -87 0
358 15 0
357 -91 0
357 1 0
-272 -271 -270 -269 -355 -339 -323 -307 356 0
355 -344 0
355 -349 0
355 -354 0
53 55 58 57 85 84 -305 99 -232 -231 -230 -353 -228 -302 -300 -352 -226 -351 -225 -299 -350 -298 -297 354 0
353 96 0
353 67 0
352 -96 0
352 64 0
351 95 0
351 6 0
350 -95 0
350 3 0
32 37 36 34 81 82 98 -221 -220 -348 -292 -291 -290 -289 -347 -218 -346 -215 -214 -213 -345 -287 -286 349 0
348 96 0
348 46 0
347 -96 0
347 43 0
346 95 0
346 4 0
345 -95 0
345 2 0
13 8 12 10 74 73 -283 92 -280 -279 -210 -209 -208 -343 -278 -275 -342 -206 -205 -274 -204 -341 -340 344 0
343 96 0
343 25 0
342 -96 0
342 22 0
341 95 0
341 5 0
340 -95 0
340 1 0
339 -328 0
339 -333 0
339 -338 0
53 56 55 58 86 85 84 -305 -198 -197 -196 -337 -336 -302 -300 -335 -193 -334 -192 -191 -299 -298 -297 338 0
337 78 0
337 6 0
336 -78 0
336 3 0
335 64 0
335 -79 0
334 79 0
334 67 0
32 35 37 34 81 83 82 -187 -186 -332 -331 -292 -185 -291 -290 -289 -330 -329 -181 -180 -179 -287 -286 333 0
332 78 0
332 4 0
331 -78 0
331 2 0
330 79 0
330 46 0
329 43 0
329 -79 0
13 8 11 10 75 74 73 -283 -327 -280 -279 -326 -325 -176 -278 -324 -275 -274 -172 -171 -170 -169 -168 328 0
327 79 0
327 25 0
326 78 0
326 5 0
325 -78 0
325 1 0
324 -79 0
324 22 0
323 -312 0
323 -317 0
323 -322 0
53 56 55 58 57 85 84 -305 -321 -164 -163 -320 -302 -300 -319 -155 -154 -318 -153 -152 -299 -298 -297 322 0
321 -90 0
321 64 0
320 89 0
320 6 0
319 -89 0
319 3 0
318 90 0
318 67 0
32 35 37 36 34 81 82 -147 -146 -316 -315 -292 -291 -290 -289 -314 -313 -140 -135 -134 -133 -287 -286 317 0
316 -90 0
316 43 0
315 90 0
315 46 0
314 89 0
314 4 0
313 -89 0
313 2 0
13 8 12 11 10 74 73 -283 -130 -129 -280 -279 -311 -278 -275 -125 -124 -310 -309 -123 -122 -308 -274 312 0
311 90 0
311 25 0
310 89 0
310 5 0
309 -89 0
309 1 0
308 -90 0
308 22 0
307 -284 0
307 -295 0
307 -306 0
54 53 56 55 52 58 57 -305 -266 -304 -303 -263 -302 -262 -261 -301 -300 -260 -299 -258 -298 -297 -296 306 0
305 66 0
305 20 0
304 20 0
304 6 0
303 3 0
303 -20 0
302 69 0
302 14 0
301 67 0
301 20 0
300 60 0
300 -16 0
299 71 0
299 16 0
298 63 0
298 -20 0
297 59 0
297 -14 0
296 64 0
296 -20 0
32 31 33 35 37 36 34 -294 -293 -255 -292 -252 -251 -291 -290 -289 -250 -288 -248 -247 -287 -286 -285 295 0
294 20 0
294 4 0
293 2 0
293 -20 0
292 39 0
292 -16 0
291 38 0
291 -14 0
290 50 0
290 16 0
289 48 0
289 14 0
288 46 0
288 20 0
287 45 0
287 20 0
286 42 0
286 -20 0
285 43 0
285 -20 0
13 9 7 8 12 11 10 -283 -282 -281 -280 -244 -243 -279 -241 -278 -277 -276 -240 -275 -239 -238 -274 284 0
283 17 0
283 -16 0
282 20 0
282 5 0
281 1 0
281 -20 0
280 15 0
280 -14 0
279 21 0
279 -20 0
278 20 0
278 24 0
277 22 0
277 -20 0
276 20 0
276 25 0
275 29 0
275 16 0
274 27 0
274 14 0
-272 -271 -270 -269 -268 -234 -200 -166 273 0
272 5 0
272 -4 0
271 4 0
271 -6 0
270 3 0
270 -2 0
269 2 0
269 -1 0
268 -245 0
268 -256 0
268 -267 0
54 56 58 57 84 -266 104 114 -162 -161 -265 -160 -264 -263 -262 -261 -260 -259 -157 -151 -258 -257 -150 267 0
266 72 0
266 16 0
265 -95 0
265 64 0
264 95 0
264 67 0
263 61 0
263 -14 0
262 68 0
262 20 0
261 65 0
261 -20 0
260 70 0
260 14 0
259 96 0
259 6 0
258 62 0
258 -16 0
257 -96 0
257 3 0
33 35 37 36 81 102 113 -255 -145 -144 -143 -254 -142 -253 -141 -252 -251 -250 -139 -249 -248 -247 -246 256 0
255 51 0
255 16 0
254 -95 0
254 43 0
253 95 0
253 46 0
252 41 0
252 -16 0
251 40 0
251 -14 0
250 49 0
250 14 0
249 96 0
249 4 0
248 47 0
248 20 0
247 44 0
247 -20 0
246 -96 0
246 2 0
13 9 12 11 73 100 112 -244 -243 -128 -127 -126 -242 -241 -240 -239 -238 -121 -120 -237 -116 -236 -235 245 0
244 26 0
244 20 0
243 23 0
243 -20 0
242 95 0
242 25 0
241 19 0
241 -16 0
240 30 0
240 16 0
239 18 0
239 -14 0
238 28 0
238 14 0
237 -95 0
237 22 0
236 96 0
236 5 0
235 -96 0
235 1 0
234 -211 0
234 -222 0
234 -233 0
52 58 57 85 99 104 114 -232 -231 -162 -161 -230 -160 -229 -228 -227 -226 -157 -225 -151 -150 -224 -223 233 0
232 93 0
232 70 0
231 -93 0
231 61 0
230 -94 0
230 62 0
229 97 0
229 67 0
228 97 0
228 68 0
227 -97 0
227 64 0
226 -97 0
226 65 0
225 94 0
225 72 0
224 -97 0
224 3 0
223 97 0
223 6 0
31 37 36 82 98 102 113 -221 -145 -144 -220 -143 -142 -219 -141 -139 -218 -217 -216 -215 -214 -213 -212 222 0
221 94 0
221 51 0
220 -94 0
220 41 0
219 97 0
219 46 0
218 97 0
218 47 0
217 -97 0
217 43 0
216 97 0
216 4 0
215 -93 0
215 40 0
214 93 0
214 49 0
213 -97 0
213 44 0
212 -97 0
212 2 0
13 7 12 74 100 92 112 -210 -128 -127 -126 -209 -208 -207 -121 -120 -206 -205 -116 -204 -203 -202 -201 211 0
210 -94 0
210 19 0
209 -93 0
209 18 0
208 93 0
208 28 0
207 97 0
207 25 0
206 94 0
206 30 0
205 -97 0
205 23 0
204 97 0
204 26 0
203 97 0
203 5 0
202 -97 0
202 22 0
201 -97 0
201 1 0
200 -177 0
200 -188 0
200 -199 0
56 58 57 85 84 104 114 -198 -162 -161 -160 -197 -196 -195 -194 -157 -193 -192 -191 -151 -190 -150 -189 199 0
198 65 0
198 -80 0
197 70 0
197 76 0
196 61 0
196 -76 0
195 109 0
195 6 0
194 -109 0
194 3 0
193 62 0
193 -77 0
192 77 0
192 72 0
191 80 0
191 68 0
190 108 0
190 67 0
189 -108 0
189 64 0
35 37 36 81 82 -187 102 113 -186 -145 -144 -143 -142 -141 -185 -139 -184 -183 -182 -181 -180 -179 -178 188 0
187 40 0
187 -76 0
186 80 0
186 47 0
185 77 0
185 51 0
184 109 0
184 4 0
183 -109 0
183 2 0
182 -108 0
182 43 0
181 49 0
181 76 0
180 41 0
180 -77 0
179 44 0
179 -80 0
178 108 0
178 46 0
13 12 11 74 73 100 112 -128 -127 -126 -176 -121 -120 -175 -174 -173 -116 -172 -171 -170 -169 -168 -167 177 0
176 -77 0
176 19 0
175 109 0
175 5 0
174 -109 0
174 1 0
173 -108 0
173 22 0
172 80 0
172 26 0
171 -76 0
171 18 0
170 -80 0
170 23 0
169 77 0
169 30 0
168 76 0
168 28 0
167 108 0
167 25 0
166 -131 0
166 -148 0
166 -165 0
56 57 85 84 105 104 114 -164 -163 -162 -161 -160 -159 -158 -157 -156 -155 -154 -153 -152 -151 -150 -149 165 0
164 91 0
164 68 0
163 -91 0
163 65 0
162 94 0
162 71 0
161 93 0
161 69 0
160 -94 0
160 60 0
159 111 0
159 6 0
158 -111 0
158 3 0
157 97 0
157 66 0
156 110 0
156 67 0
155 -88 0
155 62 0
154 -87 0
154 61 0
153 87 0
153 70 0
152 88 0
152 72 0
151 -93 0
151 59 0
150 -97 0
150 63 0
149 -110 0
149 64 0
35 36 81 82 103 102 113 -147 -146 -145 -144 -143 -142 -141 -140 -139 -138 -137 -136 -135 -134 -133 -132 148 0
147 91 0
147 47 0
146 -91 0
146 44 0
145 -93 0
145 38 0
144 94 0
144 50 0
143 -94 0
143 39 0
142 93 0
142 48 0
141 97 0
141 45 0
140 88 0
140 51 0
139 -97 0
139 42 0
138 111 0
138 4 0
137 -111 0
137 2 0
136 -110 0
136 43 0
135 -87 0
135 40 0
134 87 0
134 49 0
133 -88 0
133 41 0
132 110 0
132 46 0
12 11 74 73 101 100 -130 -129 112 -128 -127 -126 -125 -124 -123 -122 -121 -120 -119 -118 -117 -116 -115 131 0
130 91 0
130 26 0
129 -91 0
129 23 0
128 -93 0
128 15 0
127 94 0
127 29 0
126 93 0
126 27 0
125 -87 0
125 18 0
124 88 0
124 30 0
123 87 0
123 28 0
122 -88 0
122 19 0
121 97 0
121 24 0
120 -97 0
120 21 0
119 -110 0
119 22 0
118 111 0
118 5 0
117 -111 0
117 1 0
116 -94 0
116 17 0
115 110 0
115 25 0
